r = [
0,398,152,152,37,227,158,153,21,218,35,394,43,186,42,206,383,313,150,26,309,241,303,15,44,254,0
];
p = [
0,28,27,5,20,30,1,28,12,17,13,8,7,18,28,14,22,12,29,25,6,19,4,29,29,24,0
];
e = [
0,6,5,1,5,10,1,11,13,7,20,7,6,9,4,13,19,11,3,20,6,18,17,7,15,17,0
];
d = [
0,426,274,184,178,324,219,280,107,357,48,402,102,230,182,220,410,388,247,108,315,298,316,44,79,294,440
];
d_bar = [
0,440,288,187,188,339,220,294,113,366,55,406,106,239,196,227,421,394,262,121,318,308,318,59,94,306,440
];
w = [
0,0.428571429,0.357142857,0.333333333,0.5,0.666666667,1,0.785714286,2.166666667,0.777777778,2.857142857,1.75,1.5,1,0.285714286,1.857142857,1.727272727,1.833333333,0.2,1.538461538,2,1.8,8.5,0.466666667,1,1.416666667,0
];
